<number of tasks>
70

<cycle time>
234

<task times>
1 17
2 66
3 54
4 52
5 6
6 88
7 21
8 128
9 68
10 70
11 85
12 21
13 134
14 135
15 94
16 90
17 50
18 143
19 19
20 54
21 50
22 40
23 73
24 12
25 152
26 42
27 45
28 74
29 26
30 11
31 31
32 50
33 102
34 46
35 35
36 40
37 2
38 1
39 3
40 13
41 16
42 25
43 21
44 43
45 30
46 83
47 89
48 56
49 59
50 43
51 11
52 26
53 44
54 121
55 38
56 68
57 22
58 7
59 16
60 32
61 25
62 27
63 156
64 28
65 15
66 26
67 18
68 72
69 23
70 27

<precedence relations>
1,2
1,41
1,69
1,70
2,3
3,4
3,68
4,6
4,7
5,6
5,24
5,30
6,8
7,8
8,12
9,10
10,11
11,12
12,13
12,14
13,23
14,23
15,16
16,17
16,18
17,19
18,19
19,20
19,22
19,57
20,21
21,23
22,23
23,25
23,31
23,33
24,25
25,26
25,27
25,28
25,29
26,35
27,35
28,35
29,35
30,31
31,32
32,35
33,34
34,35
35,36
35,44
35,48
35,51
35,53
35,56
35,60
35,61
35,62
36,37
37,38
38,39
39,40
40,42
41,42
42,43
43,50
44,45
45,46
46,47
47,50
48,49
49,50
51,52
52,54
53,54
54,55
57,58
58,59
59,60
61,65
62,63
63,64
64,65
64,66
64,67

<setup times forward>
1,9:4
1,10:1
1,11:1
1,15:4
1,16:2
1,17:3
1,18:1
1,19:3
1,20:1
1,21:5
1,22:1
1,57:3
1,58:3
1,59:3
1,69:1
1,70:2
2,9:4
2,10:1
2,11:1
2,15:4
2,16:2
2,17:3
2,18:1
2,19:3
2,20:1
2,21:5
2,22:1
2,57:3
2,58:3
2,59:3
2,69:1
2,70:2
3,9:4
3,10:1
3,11:1
3,15:4
3,16:2
3,17:3
3,18:1
3,19:3
3,20:1
3,21:5
3,22:1
3,57:3
3,58:3
3,59:3
3,68:4
3,69:1
3,70:2
4,6:2
4,7:2
4,9:4
4,10:1
4,11:1
4,15:4
4,16:2
4,17:3
4,18:1
4,19:3
4,20:1
4,21:5
4,22:1
4,57:3
4,58:3
4,59:3
4,68:4
4,69:1
4,70:2
5,6:2
5,7:2
5,9:4
5,10:1
5,11:1
5,15:4
5,16:2
5,17:3
5,18:1
5,19:3
5,20:1
5,21:5
5,22:1
5,57:3
5,58:3
5,59:3
5,68:4
5,69:1
5,70:2
6,8:3
6,9:6
6,10:3
6,11:3
6,15:6
6,17:1
6,18:3
6,19:1
6,20:1
6,21:3
6,22:1
6,24:2
6,30:2
6,41:2
6,57:5
6,58:5
6,59:5
6,68:6
6,69:3
7,5:2
7,8:3
7,9:6
7,10:3
7,11:3
7,15:6
7,17:1
7,18:3
7,19:1
7,20:1
7,21:3
7,22:1
7,24:2
7,30:2
7,41:2
7,57:5
7,58:5
7,59:5
7,68:6
7,69:3
8,9:3
8,12:4
8,15:3
8,16:3
8,17:4
8,19:4
8,20:2
8,21:6
8,22:2
8,24:1
8,30:1
8,41:1
8,57:2
8,58:2
8,59:2
8,68:3
8,70:3
9,1:4
9,2:4
9,3:4
9,4:4
9,5:4
9,6:6
9,7:6
9,8:3
9,10:3
9,16:6
9,17:7
9,18:3
9,19:7
9,20:5
9,21:9
9,22:5
9,24:4
9,30:4
9,41:4
9,57:1
9,58:1
9,59:1
9,69:3
9,70:6
10,1:1
10,2:1
10,3:1
10,4:1
10,5:1
10,6:3
10,7:3
10,15:3
10,16:3
10,17:4
10,19:4
10,20:2
10,21:6
10,22:2
10,24:1
10,30:1
10,41:1
10,57:2
10,58:2
10,59:2
10,68:3
10,70:3
11,1:1
11,2:1
11,3:1
11,4:1
11,5:1
11,6:3
11,7:3
11,12:4
11,15:3
11,16:3
11,17:4
11,19:4
11,20:2
11,21:6
11,22:2
11,24:1
11,30:1
11,41:1
11,57:2
11,58:2
11,59:2
11,68:3
11,70:3
12,13:2
12,15:7
12,16:1
12,18:4
12,20:2
12,21:2
12,22:2
12,24:3
12,30:3
12,41:3
12,57:6
12,58:6
12,59:6
12,68:7
12,69:4
12,70:1
13,14:2
13,15:5
13,16:1
13,17:2
13,18:2
13,19:2
13,21:4
13,23:4
13,24:1
13,30:1
13,41:1
13,57:4
13,58:4
13,59:4
13,68:5
13,69:2
13,70:1
14,13:2
14,15:7
14,16:1
14,18:4
14,20:2
14,21:2
14,22:2
14,23:2
14,24:3
14,30:3
14,41:3
14,57:6
14,58:6
14,59:6
14,68:7
14,69:4
14,70:1
15,1:4
15,2:4
15,3:4
15,4:4
15,5:4
15,6:6
15,7:6
15,8:3
15,10:3
15,11:3
15,12:7
15,13:5
15,14:7
15,16:6
15,24:4
15,30:4
15,41:4
15,69:3
15,70:6
16,1:2
16,2:2
16,3:2
16,4:2
16,5:2
16,8:3
16,9:6
16,10:3
16,11:3
16,12:1
16,13:1
16,14:1
16,17:1
16,18:3
16,24:2
16,30:2
16,41:2
16,68:6
16,69:3
17,1:3
17,2:3
17,3:3
17,4:3
17,5:3
17,6:1
17,7:1
17,8:4
17,9:7
17,10:4
17,11:4
17,13:2
17,18:4
17,24:3
17,30:3
17,41:3
17,68:7
17,69:4
17,70:1
18,1:1
18,2:1
18,3:1
18,4:1
18,5:1
18,6:3
18,7:3
18,9:3
18,12:4
18,13:2
18,14:4
18,17:4
18,19:4
18,24:1
18,30:1
18,41:1
18,68:3
18,70:3
19,1:3
19,2:3
19,3:3
19,4:3
19,5:3
19,6:1
19,7:1
19,8:4
19,9:7
19,10:4
19,11:4
19,13:2
19,20:2
19,22:2
19,24:3
19,30:3
19,41:3
19,57:6
19,68:7
19,69:4
19,70:1
20,1:1
20,2:1
20,3:1
20,4:1
20,5:1
20,6:1
20,7:1
20,8:2
20,9:5
20,10:2
20,11:2
20,12:2
20,14:2
20,21:4
20,24:1
20,30:1
20,41:1
20,57:4
20,58:4
20,59:4
20,68:5
20,69:2
20,70:1
21,1:5
21,2:5
21,3:5
21,4:5
21,5:5
21,6:3
21,7:3
21,8:6
21,9:9
21,10:6
21,11:6
21,12:2
21,13:4
21,14:2
21,22:4
21,24:5
21,30:5
21,41:5
21,57:8
21,58:8
21,59:8
21,68:9
21,69:6
21,70:3
22,1:1
22,2:1
22,3:1
22,4:1
22,5:1
22,6:1
22,7:1
22,8:2
22,9:5
22,10:2
22,11:2
22,12:2
22,14:2
22,21:4
22,23:4
22,24:1
22,30:1
22,41:1
22,57:4
22,58:4
22,59:4
22,68:5
22,69:2
22,70:1
23,24:5
23,25:7
23,30:5
23,31:7
23,41:5
23,57:8
23,58:8
23,59:8
23,68:9
23,69:6
23,70:3
24,6:2
24,7:2
24,8:1
24,9:4
24,10:1
24,11:1
24,12:3
24,13:1
24,14:3
24,15:4
24,16:2
24,17:3
24,18:1
24,19:3
24,20:1
24,21:5
24,22:1
24,23:5
24,25:2
24,31:2
24,32:2
24,33:5
24,34:2
24,57:3
24,58:3
24,59:3
24,68:4
24,69:1
24,70:2
25,26:4
25,27:4
25,28:4
25,29:4
25,30:2
25,33:7
25,34:4
25,41:2
25,57:1
25,58:1
25,59:1
25,68:2
25,69:1
25,70:4
26,30:2
26,31:4
26,32:4
26,33:3
26,35:4
26,41:2
26,57:5
26,58:5
26,59:5
26,68:6
26,69:3
27,30:2
27,31:4
27,32:4
27,33:3
27,35:4
27,41:2
27,57:5
27,58:5
27,59:5
27,68:6
27,69:3
28,30:2
28,31:4
28,32:4
28,33:3
28,35:4
28,41:2
28,57:5
28,58:5
28,59:5
28,68:6
28,69:3
29,30:2
29,31:4
29,32:4
29,33:3
29,35:4
29,41:2
29,57:5
29,58:5
29,59:5
29,68:6
29,69:3
30,6:2
30,7:2
30,8:1
30,9:4
30,10:1
30,11:1
30,12:3
30,13:1
30,14:3
30,15:4
30,16:2
30,17:3
30,18:1
30,19:3
30,20:1
30,21:5
30,22:1
30,23:5
30,25:2
30,26:2
30,27:2
30,28:2
30,29:2
30,31:2
30,33:5
30,34:2
30,57:3
30,58:3
30,59:3
30,68:4
30,69:1
30,70:2
31,24:2
31,26:4
31,27:4
31,28:4
31,29:4
31,33:7
31,34:4
31,41:2
31,57:1
31,58:1
31,59:1
31,68:2
31,69:1
31,70:4
32,24:2
32,26:4
32,27:4
32,28:4
32,29:4
32,33:7
32,34:4
32,35:8
32,41:2
32,57:1
32,58:1
32,59:1
32,68:2
32,69:1
32,70:4
33,24:5
33,25:7
33,26:3
33,27:3
33,28:3
33,29:3
33,30:5
33,31:7
33,32:7
33,34:3
33,41:5
33,57:8
33,58:8
33,59:8
33,68:9
33,69:6
33,70:3
34,24:2
34,25:4
34,30:2
34,31:4
34,32:4
34,35:4
34,41:2
34,57:5
34,58:5
34,59:5
34,68:6
34,69:3
35,36:7
35,41:6
35,48:7
35,53:5
35,56:9
35,57:9
35,58:9
35,59:9
35,60:9
35,61:9
35,68:10
35,69:7
35,70:4
36,41:1
36,44:7
36,45:7
36,46:7
36,49:2
36,51:7
36,52:2
36,53:2
36,54:7
36,55:7
36,56:2
36,57:2
36,58:2
36,59:2
36,60:2
36,61:2
36,62:7
36,63:2
36,65:8
36,66:8
36,67:8
36,68:3
36,70:3
37,41:1
37,44:7
37,45:7
37,46:7
37,49:2
37,51:7
37,52:2
37,53:2
37,54:7
37,55:7
37,56:2
37,57:2
37,58:2
37,59:2
37,60:2
37,61:2
37,62:7
37,63:2
37,65:8
37,66:8
37,67:8
37,68:3
37,70:3
38,41:1
38,44:7
38,45:7
38,46:7
38,49:2
38,51:7
38,52:2
38,53:2
38,54:7
38,55:7
38,56:2
38,57:2
38,58:2
38,59:2
38,60:2
38,61:2
38,62:7
38,63:2
38,65:8
38,66:8
38,67:8
38,68:3
38,70:3
39,41:1
39,44:7
39,45:7
39,46:7
39,49:2
39,51:7
39,52:2
39,53:2
39,54:7
39,55:7
39,56:2
39,57:2
39,58:2
39,59:2
39,60:2
39,61:2
39,62:7
39,63:2
39,65:8
39,66:8
39,67:8
39,68:3
39,70:3
40,41:1
40,42:8
40,44:7
40,45:7
40,46:7
40,49:2
40,51:7
40,52:2
40,53:2
40,54:7
40,55:7
40,56:2
40,57:2
40,58:2
40,59:2
40,60:2
40,61:2
40,62:7
40,63:2
40,65:8
40,66:8
40,67:8
40,68:3
40,70:3
41,6:2
41,7:2
41,8:1
41,9:4
41,10:1
41,11:1
41,12:3
41,13:1
41,14:3
41,15:4
41,16:2
41,17:3
41,18:1
41,19:3
41,20:1
41,21:5
41,22:1
41,23:5
41,25:2
41,26:2
41,27:2
41,28:2
41,29:2
41,31:2
41,32:2
41,33:5
41,34:2
41,35:6
41,36:1
41,37:1
41,38:1
41,39:1
41,40:1
41,42:7
41,44:6
41,45:6
41,46:6
41,47:1
41,48:1
41,49:3
41,51:6
41,52:1
41,53:1
41,54:6
41,55:6
41,56:3
41,57:3
41,58:3
41,59:3
41,60:3
41,61:3
41,62:6
41,63:1
41,64:1
41,65:7
41,66:7
41,67:7
41,68:4
41,69:1
41,70:2
42,43:1
42,44:1
42,45:1
42,46:1
42,47:8
42,48:8
42,49:10
42,51:1
42,52:6
42,53:6
42,54:1
42,55:1
42,56:10
42,57:10
42,58:10
42,59:10
42,60:10
42,61:10
42,62:1
42,63:6
42,64:8
42,68:11
42,69:8
42,70:5
43,47:7
43,48:7
43,49:9
43,52:5
43,53:5
43,56:9
43,57:9
43,58:9
43,59:9
43,60:9
43,61:9
43,63:5
43,64:7
43,65:1
43,66:1
43,67:1
43,68:10
43,69:7
43,70:4
44,36:7
44,37:7
44,38:7
44,39:7
44,40:7
44,41:6
44,42:1
44,48:7
44,49:9
44,52:5
44,53:5
44,56:9
44,57:9
44,58:9
44,59:9
44,60:9
44,61:9
44,63:5
44,64:7
44,65:1
44,66:1
44,67:1
44,68:10
44,69:7
44,70:4
45,36:7
45,37:7
45,38:7
45,39:7
45,40:7
45,41:6
45,42:1
45,48:7
45,49:9
45,52:5
45,53:5
45,56:9
45,57:9
45,58:9
45,59:9
45,60:9
45,61:9
45,63:5
45,64:7
45,65:1
45,66:1
45,67:1
45,68:10
45,69:7
45,70:4
46,36:7
46,37:7
46,38:7
46,39:7
46,40:7
46,41:6
46,42:1
46,47:7
46,48:7
46,49:9
46,52:5
46,53:5
46,56:9
46,57:9
46,58:9
46,59:9
46,60:9
46,61:9
46,63:5
46,64:7
46,65:1
46,66:1
46,67:1
46,68:10
46,69:7
46,70:4
47,41:1
47,42:8
47,43:7
47,49:2
47,50:7
47,51:7
47,52:2
47,53:2
47,54:7
47,55:7
47,56:2
47,57:2
47,58:2
47,59:2
47,60:2
47,61:2
47,62:7
47,63:2
47,65:8
47,66:8
47,67:8
47,68:3
47,70:3
48,41:1
48,42:8
48,43:7
48,44:7
48,45:7
48,46:7
48,49:2
48,51:7
48,52:2
48,53:2
48,54:7
48,55:7
48,56:2
48,57:2
48,58:2
48,59:2
48,60:2
48,61:2
48,62:7
48,63:2
48,65:8
48,66:8
48,67:8
48,68:3
48,70:3
49,36:2
49,37:2
49,38:2
49,39:2
49,40:2
49,41:3
49,42:10
49,43:9
49,44:9
49,45:9
49,46:9
49,47:2
49,50:9
49,51:9
49,52:4
49,53:4
49,54:9
49,55:9
49,62:9
49,63:4
49,64:2
49,65:10
49,66:10
49,67:10
49,68:1
49,69:2
49,70:5
50,52:5
50,53:5
50,56:9
50,57:9
50,58:9
50,59:9
50,60:9
50,61:9
50,63:5
50,64:7
50,65:1
50,66:1
50,67:1
50,68:10
50,69:7
50,70:4
51,36:7
51,37:7
51,38:7
51,39:7
51,40:7
51,41:6
51,42:1
51,47:7
51,48:7
51,49:9
51,52:5
51,53:5
51,56:9
51,57:9
51,58:9
51,59:9
51,60:9
51,61:9
51,63:5
51,64:7
51,65:1
51,66:1
51,67:1
51,68:10
51,69:7
51,70:4
52,36:2
52,37:2
52,38:2
52,39:2
52,40:2
52,41:1
52,42:6
52,43:5
52,44:5
52,45:5
52,46:5
52,47:2
52,48:2
52,49:4
52,50:5
52,54:5
52,56:4
52,57:4
52,58:4
52,59:4
52,60:4
52,61:4
52,62:5
52,64:2
52,65:6
52,66:6
52,67:6
52,68:5
52,69:2
52,70:1
53,36:2
53,37:2
53,38:2
53,39:2
53,40:2
53,41:1
53,42:6
53,43:5
53,44:5
53,45:5
53,46:5
53,47:2
53,48:2
53,49:4
53,50:5
53,51:5
53,54:5
53,56:4
53,57:4
53,58:4
53,59:4
53,60:4
53,61:4
53,62:5
53,64:2
53,65:6
53,66:6
53,67:6
53,68:5
53,69:2
53,70:1
54,36:7
54,37:7
54,38:7
54,39:7
54,40:7
54,41:6
54,42:1
54,47:7
54,48:7
54,49:9
54,56:9
54,57:9
54,58:9
54,59:9
54,60:9
54,61:9
54,63:5
54,64:7
54,65:1
54,66:1
54,67:1
54,68:10
54,69:7
54,70:4
55,36:7
55,37:7
55,38:7
55,39:7
55,40:7
55,41:6
55,42:1
55,47:7
55,48:7
55,49:9
55,56:9
55,57:9
55,58:9
55,59:9
55,60:9
55,61:9
55,63:5
55,64:7
55,65:1
55,66:1
55,67:1
55,68:10
55,69:7
55,70:4
56,36:2
56,37:2
56,38:2
56,39:2
56,40:2
56,41:3
56,42:10
56,43:9
56,44:9
56,45:9
56,46:9
56,47:2
56,48:2
56,50:9
56,51:9
56,52:4
56,53:4
56,54:9
56,55:9
56,62:9
56,63:4
56,64:2
56,65:10
56,66:10
56,67:10
56,68:1
56,69:2
56,70:5
57,1:3
57,2:3
57,3:3
57,4:3
57,5:3
57,6:5
57,7:5
57,8:2
57,9:1
57,10:2
57,11:2
57,12:6
57,13:4
57,14:6
57,20:4
57,21:8
57,22:4
57,23:8
57,24:3
57,25:1
57,26:5
57,27:5
57,28:5
57,29:5
57,30:3
57,31:1
57,32:1
57,33:8
57,34:5
57,35:9
57,36:2
57,37:2
57,38:2
57,39:2
57,40:2
57,41:3
57,42:10
57,43:9
57,44:9
57,45:9
57,46:9
57,47:2
57,48:2
57,50:9
57,51:9
57,52:4
57,53:4
57,54:9
57,55:9
57,62:9
57,63:4
57,64:2
57,65:10
57,66:10
57,67:10
57,68:1
57,69:2
57,70:5
58,1:3
58,2:3
58,3:3
58,4:3
58,5:3
58,6:5
58,7:5
58,8:2
58,9:1
58,10:2
58,11:2
58,12:6
58,13:4
58,14:6
58,20:4
58,21:8
58,22:4
58,23:8
58,24:3
58,25:1
58,26:5
58,27:5
58,28:5
58,29:5
58,30:3
58,31:1
58,32:1
58,33:8
58,34:5
58,35:9
58,36:2
58,37:2
58,38:2
58,39:2
58,40:2
58,41:3
58,42:10
58,43:9
58,44:9
58,45:9
58,46:9
58,47:2
58,48:2
58,50:9
58,51:9
58,52:4
58,53:4
58,54:9
58,55:9
58,62:9
58,63:4
58,64:2
58,65:10
58,66:10
58,67:10
58,68:1
58,69:2
58,70:5
59,1:3
59,2:3
59,3:3
59,4:3
59,5:3
59,6:5
59,7:5
59,8:2
59,9:1
59,10:2
59,11:2
59,12:6
59,13:4
59,14:6
59,20:4
59,21:8
59,22:4
59,23:8
59,24:3
59,25:1
59,26:5
59,27:5
59,28:5
59,29:5
59,30:3
59,31:1
59,32:1
59,33:8
59,34:5
59,35:9
59,36:2
59,37:2
59,38:2
59,39:2
59,40:2
59,41:3
59,42:10
59,43:9
59,44:9
59,45:9
59,46:9
59,47:2
59,48:2
59,50:9
59,51:9
59,52:4
59,53:4
59,54:9
59,55:9
59,62:9
59,63:4
59,64:2
59,65:10
59,66:10
59,67:10
59,68:1
59,69:2
59,70:5
60,36:2
60,37:2
60,38:2
60,39:2
60,40:2
60,41:3
60,42:10
60,43:9
60,44:9
60,45:9
60,46:9
60,47:2
60,48:2
60,50:9
60,51:9
60,52:4
60,53:4
60,54:9
60,55:9
60,62:9
60,63:4
60,64:2
60,65:10
60,66:10
60,67:10
60,68:1
60,69:2
60,70:5
61,36:2
61,37:2
61,38:2
61,39:2
61,40:2
61,41:3
61,42:10
61,43:9
61,44:9
61,45:9
61,46:9
61,47:2
61,48:2
61,50:9
61,51:9
61,52:4
61,53:4
61,54:9
61,55:9
61,62:9
61,63:4
61,64:2
61,65:10
61,66:10
61,67:10
61,68:1
61,69:2
61,70:5
62,36:7
62,37:7
62,38:7
62,39:7
62,40:7
62,41:6
62,42:1
62,47:7
62,48:7
62,49:9
62,52:5
62,53:5
62,56:9
62,57:9
62,58:9
62,59:9
62,60:9
62,61:9
62,63:5
62,68:10
62,69:7
62,70:4
63,36:2
63,37:2
63,38:2
63,39:2
63,40:2
63,41:1
63,42:6
63,43:5
63,44:5
63,45:5
63,46:5
63,47:2
63,48:2
63,49:4
63,50:5
63,51:5
63,54:5
63,55:5
63,56:4
63,57:4
63,58:4
63,59:4
63,60:4
63,61:4
63,64:2
63,68:5
63,69:2
63,70:1
64,41:1
64,42:8
64,43:7
64,44:7
64,45:7
64,46:7
64,49:2
64,50:7
64,51:7
64,52:2
64,53:2
64,54:7
64,55:7
64,56:2
64,57:2
64,58:2
64,59:2
64,60:2
64,61:2
64,65:8
64,66:8
64,67:8
64,68:3
64,70:3
65,36:8
65,37:8
65,38:8
65,39:8
65,40:8
65,41:7
65,43:1
65,44:1
65,45:1
65,46:1
65,47:8
65,48:8
65,49:10
65,50:1
65,51:1
65,52:6
65,53:6
65,54:1
65,55:1
65,56:10
65,57:10
65,58:10
65,59:10
65,60:10
65,68:11
65,69:8
65,70:5
66,36:8
66,37:8
66,38:8
66,39:8
66,40:8
66,41:7
66,43:1
66,44:1
66,45:1
66,46:1
66,47:8
66,48:8
66,49:10
66,50:1
66,51:1
66,52:6
66,53:6
66,54:1
66,55:1
66,56:10
66,57:10
66,58:10
66,59:10
66,60:10
66,61:10
66,68:11
66,69:8
66,70:5
67,36:8
67,37:8
67,38:8
67,39:8
67,40:8
67,41:7
67,43:1
67,44:1
67,45:1
67,46:1
67,47:8
67,48:8
67,49:10
67,50:1
67,51:1
67,52:6
67,53:6
67,54:1
67,55:1
67,56:10
67,57:10
67,58:10
67,59:10
67,60:10
67,61:10
67,68:11
67,69:8
67,70:5
68,4:4
68,5:4
68,6:6
68,7:6
68,8:3
68,10:3
68,11:3
68,12:7
68,13:5
68,14:7
68,16:6
68,17:7
68,18:3
68,19:7
68,20:5
68,21:9
68,22:5
68,23:9
68,24:4
68,25:2
68,26:6
68,27:6
68,28:6
68,29:6
68,30:4
68,31:2
68,32:2
68,33:9
68,34:6
68,35:10
68,36:3
68,37:3
68,38:3
68,39:3
68,40:3
68,41:4
68,42:11
68,43:10
68,44:10
68,45:10
68,46:10
68,47:3
68,48:3
68,49:1
68,50:10
68,51:10
68,52:5
68,53:5
68,54:10
68,55:10
68,56:1
68,57:1
68,58:1
68,59:1
68,60:1
68,61:1
68,62:10
68,63:5
68,64:3
68,65:11
68,66:11
68,67:11
68,69:3
68,70:6
69,2:1
69,3:1
69,4:1
69,5:1
69,6:3
69,7:3
69,9:3
69,12:4
69,13:2
69,14:4
69,15:3
69,16:3
69,17:4
69,19:4
69,20:2
69,21:6
69,22:2
69,23:6
69,24:1
69,25:1
69,26:3
69,27:3
69,28:3
69,29:3
69,30:1
69,31:1
69,32:1
69,33:6
69,34:3
69,35:7
69,41:1
69,42:8
69,43:7
69,44:7
69,45:7
69,46:7
69,49:2
69,50:7
69,51:7
69,52:2
69,53:2
69,54:7
69,55:7
69,56:2
69,57:2
69,58:2
69,59:2
69,60:2
69,61:2
69,62:7
69,63:2
69,65:8
69,66:8
69,67:8
69,68:3
69,70:3
70,2:2
70,3:2
70,4:2
70,5:2
70,8:3
70,9:6
70,10:3
70,11:3
70,12:1
70,13:1
70,14:1
70,15:6
70,17:1
70,18:3
70,19:1
70,20:1
70,21:3
70,22:1
70,23:3
70,24:2
70,25:4
70,30:2
70,31:4
70,32:4
70,33:3
70,35:4
70,36:3
70,37:3
70,38:3
70,39:3
70,40:3
70,41:2
70,42:5
70,43:4
70,44:4
70,45:4
70,46:4
70,47:3
70,48:3
70,49:5
70,50:4
70,51:4
70,52:1
70,53:1
70,54:4
70,55:4
70,56:5
70,57:5
70,58:5
70,59:5
70,60:5
70,61:5
70,62:4
70,63:1
70,64:3
70,65:5
70,66:5
70,67:5
70,68:6
70,69:3

<setup times backward>
1,16:2
1,17:3
1,19:3
1,20:1
1,21:5
1,22:1
2,16:2
2,17:3
2,19:3
2,20:1
2,21:5
2,22:1
2,70:2
3,16:2
3,17:3
3,19:3
3,20:1
3,21:5
3,22:1
3,70:2
4,16:2
4,17:3
4,19:3
4,20:1
4,21:5
4,22:1
4,70:2
5,7:2
5,16:2
5,17:3
5,19:3
5,20:1
5,21:5
5,22:1
5,70:2
6,17:1
6,19:1
6,21:3
7,17:1
7,19:1
7,21:3
8,1:1
8,2:1
8,3:1
8,4:1
8,5:1
8,6:3
8,7:3
8,16:3
8,17:4
8,19:4
8,20:2
8,21:6
8,22:2
8,24:1
8,30:1
8,41:1
8,70:3
9,1:4
9,2:4
9,3:4
9,4:4
9,5:4
9,6:6
9,7:6
9,8:3
9,16:6
9,17:7
9,18:3
9,19:7
9,20:5
9,21:9
9,22:5
9,24:4
9,30:4
9,41:4
9,57:1
9,58:1
9,59:1
9,69:3
9,70:6
10,1:1
10,2:1
10,3:1
10,4:1
10,5:1
10,6:3
10,7:3
10,16:3
10,17:4
10,19:4
10,20:2
10,21:6
10,22:2
10,24:1
10,30:1
10,41:1
10,70:3
11,1:1
11,2:1
11,3:1
11,4:1
11,5:1
11,6:3
11,7:3
11,16:3
11,17:4
11,19:4
11,20:2
11,21:6
11,22:2
11,24:1
11,30:1
11,41:1
11,70:3
12,21:2
13,6:1
13,7:1
13,12:2
13,14:2
13,16:1
13,17:2
13,19:2
13,21:4
13,70:1
14,21:2
15,1:4
15,2:4
15,3:4
15,4:4
15,5:4
15,6:6
15,7:6
15,8:3
15,10:3
15,11:3
15,12:7
15,13:5
15,14:7
15,24:4
15,30:4
15,41:4
15,69:3
15,70:6
16,12:1
16,14:1
18,1:1
18,2:1
18,3:1
18,4:1
18,5:1
18,6:3
18,7:3
18,12:4
18,13:2
18,14:4
18,16:3
18,17:4
18,24:1
18,30:1
18,41:1
18,70:3
20,6:1
20,7:1
20,12:2
20,14:2
20,16:1
20,17:2
20,19:2
20,70:1
22,6:1
22,7:1
22,12:2
22,14:2
22,16:1
22,17:2
22,19:2
22,21:4
22,70:1
24,6:2
24,7:2
24,12:3
24,13:1
24,14:3
24,16:2
24,17:3
24,19:3
24,20:1
24,21:5
24,22:1
24,23:5
24,33:5
24,34:2
24,70:2
25,1:2
25,2:2
25,3:2
25,4:2
25,5:2
25,6:4
25,7:4
25,8:1
25,10:1
25,11:1
25,12:5
25,13:3
25,14:5
25,16:4
25,17:5
25,18:1
25,19:5
25,20:3
25,21:7
25,22:3
25,23:7
25,24:2
25,30:2
25,33:7
25,34:4
25,41:2
25,69:1
25,70:4
26,12:1
26,14:1
26,17:1
26,19:1
26,21:3
26,23:3
26,33:3
27,12:1
27,14:1
27,17:1
27,19:1
27,21:3
27,23:3
27,33:3
28,12:1
28,14:1
28,17:1
28,19:1
28,21:3
28,23:3
28,33:3
29,12:1
29,14:1
29,17:1
29,19:1
29,21:3
29,23:3
29,33:3
30,6:2
30,7:2
30,12:3
30,13:1
30,14:3
30,16:2
30,17:3
30,19:3
30,20:1
30,21:5
30,22:1
30,23:5
30,26:2
30,27:2
30,28:2
30,29:2
30,33:5
30,34:2
30,70:2
31,1:2
31,2:2
31,3:2
31,4:2
31,5:2
31,6:4
31,7:4
31,8:1
31,10:1
31,11:1
31,12:5
31,13:3
31,14:5
31,16:4
31,17:5
31,18:1
31,19:5
31,20:3
31,21:7
31,22:3
31,23:7
31,24:2
31,26:4
31,27:4
31,28:4
31,29:4
31,30:2
31,33:7
31,34:4
31,41:2
31,69:1
31,70:4
32,1:2
32,2:2
32,3:2
32,4:2
32,5:2
32,6:4
32,7:4
32,8:1
32,10:1
32,11:1
32,12:5
32,13:3
32,14:5
32,16:4
32,17:5
32,18:1
32,19:5
32,20:3
32,21:7
32,22:3
32,23:7
32,24:2
32,26:4
32,27:4
32,28:4
32,29:4
32,30:2
32,33:7
32,34:4
32,41:2
32,69:1
32,70:4
34,12:1
34,14:1
34,17:1
34,19:1
34,21:3
34,23:3
34,33:3
36,1:1
36,2:1
36,3:1
36,4:1
36,5:1
36,6:3
36,7:3
36,12:4
36,13:2
36,14:4
36,16:3
36,17:4
36,19:4
36,20:2
36,21:6
36,22:2
36,23:6
36,24:1
36,26:3
36,27:3
36,28:3
36,29:3
36,30:1
36,33:6
36,34:3
36,35:7
36,41:1
36,44:7
36,45:7
36,46:7
36,51:7
36,52:2
36,53:2
36,54:7
36,55:7
36,62:7
36,63:2
36,65:8
36,66:8
36,67:8
36,70:3
37,1:1
37,2:1
37,3:1
37,4:1
37,5:1
37,6:3
37,7:3
37,12:4
37,13:2
37,14:4
37,16:3
37,17:4
37,19:4
37,20:2
37,21:6
37,22:2
37,23:6
37,24:1
37,26:3
37,27:3
37,28:3
37,29:3
37,30:1
37,33:6
37,34:3
37,35:7
37,41:1
37,44:7
37,45:7
37,46:7
37,51:7
37,52:2
37,53:2
37,54:7
37,55:7
37,62:7
37,63:2
37,65:8
37,66:8
37,67:8
37,70:3
38,1:1
38,2:1
38,3:1
38,4:1
38,5:1
38,6:3
38,7:3
38,12:4
38,13:2
38,14:4
38,16:3
38,17:4
38,19:4
38,20:2
38,21:6
38,22:2
38,23:6
38,24:1
38,26:3
38,27:3
38,28:3
38,29:3
38,30:1
38,33:6
38,34:3
38,35:7
38,41:1
38,44:7
38,45:7
38,46:7
38,51:7
38,52:2
38,53:2
38,54:7
38,55:7
38,62:7
38,63:2
38,65:8
38,66:8
38,67:8
38,70:3
39,1:1
39,2:1
39,3:1
39,4:1
39,5:1
39,6:3
39,7:3
39,12:4
39,13:2
39,14:4
39,16:3
39,17:4
39,19:4
39,20:2
39,21:6
39,22:2
39,23:6
39,24:1
39,26:3
39,27:3
39,28:3
39,29:3
39,30:1
39,33:6
39,34:3
39,35:7
39,41:1
39,44:7
39,45:7
39,46:7
39,51:7
39,52:2
39,53:2
39,54:7
39,55:7
39,62:7
39,63:2
39,65:8
39,66:8
39,67:8
39,70:3
40,1:1
40,2:1
40,3:1
40,4:1
40,5:1
40,6:3
40,7:3
40,12:4
40,13:2
40,14:4
40,16:3
40,17:4
40,19:4
40,20:2
40,21:6
40,22:2
40,23:6
40,24:1
40,26:3
40,27:3
40,28:3
40,29:3
40,30:1
40,33:6
40,34:3
40,35:7
40,41:1
40,44:7
40,45:7
40,46:7
40,51:7
40,52:2
40,53:2
40,54:7
40,55:7
40,62:7
40,63:2
40,65:8
40,66:8
40,67:8
40,70:3
41,6:2
41,7:2
41,12:3
41,13:1
41,14:3
41,16:2
41,17:3
41,19:3
41,20:1
41,21:5
41,22:1
41,23:5
41,26:2
41,27:2
41,28:2
41,29:2
41,33:5
41,34:2
41,35:6
41,44:6
41,45:6
41,46:6
41,51:6
41,52:1
41,53:1
41,54:6
41,55:6
41,62:6
41,63:1
41,65:7
41,66:7
41,67:7
41,70:2
43,42:1
43,65:1
43,66:1
43,67:1
44,42:1
44,65:1
44,66:1
44,67:1
45,42:1
45,65:1
45,66:1
45,67:1
46,42:1
46,65:1
46,66:1
46,67:1
47,1:1
47,2:1
47,3:1
47,4:1
47,5:1
47,6:3
47,7:3
47,12:4
47,13:2
47,14:4
47,16:3
47,17:4
47,19:4
47,20:2
47,21:6
47,22:2
47,23:6
47,24:1
47,26:3
47,27:3
47,28:3
47,29:3
47,30:1
47,33:6
47,34:3
47,35:7
47,41:1
47,42:8
47,43:7
47,44:7
47,45:7
47,46:7
47,51:7
47,52:2
47,53:2
47,54:7
47,55:7
47,62:7
47,63:2
47,65:8
47,66:8
47,67:8
47,70:3
48,1:1
48,2:1
48,3:1
48,4:1
48,5:1
48,6:3
48,7:3
48,12:4
48,13:2
48,14:4
48,16:3
48,17:4
48,19:4
48,20:2
48,21:6
48,22:2
48,23:6
48,24:1
48,26:3
48,27:3
48,28:3
48,29:3
48,30:1
48,33:6
48,34:3
48,35:7
48,41:1
48,42:8
48,43:7
48,44:7
48,45:7
48,46:7
48,51:7
48,52:2
48,53:2
48,54:7
48,55:7
48,62:7
48,63:2
48,65:8
48,66:8
48,67:8
48,70:3
49,1:3
49,2:3
49,3:3
49,4:3
49,5:3
49,6:5
49,7:5
49,8:2
49,10:2
49,11:2
49,12:6
49,13:4
49,14:6
49,16:5
49,17:6
49,18:2
49,19:6
49,20:4
49,21:8
49,22:4
49,23:8
49,24:3
49,25:1
49,26:5
49,27:5
49,28:5
49,29:5
49,30:3
49,31:1
49,32:1
49,33:8
49,34:5
49,35:9
49,36:2
49,37:2
49,38:2
49,39:2
49,40:2
49,41:3
49,42:10
49,43:9
49,44:9
49,45:9
49,46:9
49,47:2
49,48:2
49,51:9
49,52:4
49,53:4
49,54:9
49,55:9
49,62:9
49,63:4
49,64:2
49,65:10
49,66:10
49,67:10
49,69:2
49,70:5
50,42:1
50,65:1
50,66:1
50,67:1
51,42:1
51,65:1
51,66:1
51,67:1
52,6:1
52,7:1
52,12:2
52,14:2
52,16:1
52,17:2
52,19:2
52,21:4
52,23:4
52,26:1
52,27:1
52,28:1
52,29:1
52,33:4
52,34:1
52,35:5
52,42:6
52,43:5
52,44:5
52,45:5
52,46:5
52,50:5
52,51:5
52,62:5
52,65:6
52,66:6
52,67:6
52,70:1
53,6:1
53,7:1
53,12:2
53,14:2
53,16:1
53,17:2
53,19:2
53,21:4
53,23:4
53,26:1
53,27:1
53,28:1
53,29:1
53,33:4
53,34:1
53,35:5
53,42:6
53,43:5
53,44:5
53,45:5
53,46:5
53,50:5
53,51:5
53,62:5
53,65:6
53,66:6
53,67:6
53,70:1
54,42:1
54,65:1
54,66:1
54,67:1
55,42:1
55,65:1
55,66:1
55,67:1
56,1:3
56,2:3
56,3:3
56,4:3
56,5:3
56,6:5
56,7:5
56,8:2
56,10:2
56,11:2
56,12:6
56,13:4
56,14:6
56,16:5
56,17:6
56,18:2
56,19:6
56,20:4
56,21:8
56,22:4
56,23:8
56,24:3
56,25:1
56,26:5
56,27:5
56,28:5
56,29:5
56,30:3
56,31:1
56,32:1
56,33:8
56,34:5
56,35:9
56,36:2
56,37:2
56,38:2
56,39:2
56,40:2
56,41:3
56,42:10
56,43:9
56,44:9
56,45:9
56,46:9
56,47:2
56,48:2
56,50:9
56,51:9
56,52:4
56,53:4
56,54:9
56,55:9
56,62:9
56,63:4
56,64:2
56,65:10
56,66:10
56,67:10
56,69:2
56,70:5
57,1:3
57,2:3
57,3:3
57,4:3
57,5:3
57,6:5
57,7:5
57,8:2
57,10:2
57,11:2
57,12:6
57,13:4
57,14:6
57,16:5
57,17:6
57,18:2
57,19:6
57,20:4
57,21:8
57,22:4
57,23:8
57,24:3
57,25:1
57,26:5
57,27:5
57,28:5
57,29:5
57,30:3
57,31:1
57,32:1
57,33:8
57,34:5
57,35:9
57,36:2
57,37:2
57,38:2
57,39:2
57,40:2
57,41:3
57,42:10
57,43:9
57,44:9
57,45:9
57,46:9
57,47:2
57,48:2
57,50:9
57,51:9
57,52:4
57,53:4
57,54:9
57,55:9
57,62:9
57,63:4
57,64:2
57,65:10
57,66:10
57,67:10
57,69:2
57,70:5
58,1:3
58,2:3
58,3:3
58,4:3
58,5:3
58,6:5
58,7:5
58,8:2
58,10:2
58,11:2
58,12:6
58,13:4
58,14:6
58,16:5
58,17:6
58,18:2
58,19:6
58,20:4
58,21:8
58,22:4
58,23:8
58,24:3
58,25:1
58,26:5
58,27:5
58,28:5
58,29:5
58,30:3
58,31:1
58,32:1
58,33:8
58,34:5
58,35:9
58,36:2
58,37:2
58,38:2
58,39:2
58,40:2
58,41:3
58,42:10
58,43:9
58,44:9
58,45:9
58,46:9
58,47:2
58,48:2
58,50:9
58,51:9
58,52:4
58,53:4
58,54:9
58,55:9
58,62:9
58,63:4
58,64:2
58,65:10
58,66:10
58,67:10
58,69:2
58,70:5
59,1:3
59,2:3
59,3:3
59,4:3
59,5:3
59,6:5
59,7:5
59,8:2
59,10:2
59,11:2
59,12:6
59,13:4
59,14:6
59,16:5
59,17:6
59,18:2
59,19:6
59,20:4
59,21:8
59,22:4
59,23:8
59,24:3
59,25:1
59,26:5
59,27:5
59,28:5
59,29:5
59,30:3
59,31:1
59,32:1
59,33:8
59,34:5
59,35:9
59,36:2
59,37:2
59,38:2
59,39:2
59,40:2
59,41:3
59,42:10
59,43:9
59,44:9
59,45:9
59,46:9
59,47:2
59,48:2
59,50:9
59,51:9
59,52:4
59,53:4
59,54:9
59,55:9
59,62:9
59,63:4
59,64:2
59,65:10
59,66:10
59,67:10
59,69:2
59,70:5
60,1:3
60,2:3
60,3:3
60,4:3
60,5:3
60,6:5
60,7:5
60,8:2
60,10:2
60,11:2
60,12:6
60,13:4
60,14:6
60,16:5
60,17:6
60,18:2
60,19:6
60,20:4
60,21:8
60,22:4
60,23:8
60,24:3
60,25:1
60,26:5
60,27:5
60,28:5
60,29:5
60,30:3
60,31:1
60,32:1
60,33:8
60,34:5
60,35:9
60,36:2
60,37:2
60,38:2
60,39:2
60,40:2
60,41:3
60,42:10
60,43:9
60,44:9
60,45:9
60,46:9
60,47:2
60,48:2
60,50:9
60,51:9
60,52:4
60,53:4
60,54:9
60,55:9
60,62:9
60,63:4
60,64:2
60,65:10
60,66:10
60,67:10
60,69:2
60,70:5
61,1:3
61,2:3
61,3:3
61,4:3
61,5:3
61,6:5
61,7:5
61,8:2
61,10:2
61,11:2
61,12:6
61,13:4
61,14:6
61,16:5
61,17:6
61,18:2
61,19:6
61,20:4
61,21:8
61,22:4
61,23:8
61,24:3
61,25:1
61,26:5
61,27:5
61,28:5
61,29:5
61,30:3
61,31:1
61,32:1
61,33:8
61,34:5
61,35:9
61,36:2
61,37:2
61,38:2
61,39:2
61,40:2
61,41:3
61,42:10
61,43:9
61,44:9
61,45:9
61,46:9
61,47:2
61,48:2
61,50:9
61,51:9
61,52:4
61,53:4
61,54:9
61,55:9
61,62:9
61,63:4
61,64:2
61,66:10
61,67:10
61,69:2
61,70:5
62,42:1
63,6:1
63,7:1
63,12:2
63,14:2
63,16:1
63,17:2
63,19:2
63,21:4
63,23:4
63,26:1
63,27:1
63,28:1
63,29:1
63,33:4
63,34:1
63,35:5
63,42:6
63,43:5
63,44:5
63,45:5
63,46:5
63,50:5
63,51:5
63,54:5
63,55:5
63,62:5
63,70:1
64,1:1
64,2:1
64,3:1
64,4:1
64,5:1
64,6:3
64,7:3
64,12:4
64,13:2
64,14:4
64,16:3
64,17:4
64,19:4
64,20:2
64,21:6
64,22:2
64,23:6
64,24:1
64,26:3
64,27:3
64,28:3
64,29:3
64,30:1
64,33:6
64,34:3
64,35:7
64,41:1
64,42:8
64,43:7
64,44:7
64,45:7
64,46:7
64,50:7
64,51:7
64,52:2
64,53:2
64,54:7
64,55:7
64,62:7
64,63:2
64,70:3
68,1:4
68,2:4
68,3:4
68,4:4
68,5:4
68,6:6
68,7:6
68,8:3
68,10:3
68,11:3
68,12:7
68,13:5
68,14:7
68,16:6
68,17:7
68,18:3
68,19:7
68,20:5
68,21:9
68,22:5
68,23:9
68,24:4
68,25:2
68,26:6
68,27:6
68,28:6
68,29:6
68,30:4
68,31:2
68,32:2
68,33:9
68,34:6
68,35:10
68,36:3
68,37:3
68,38:3
68,39:3
68,40:3
68,41:4
68,42:11
68,43:10
68,44:10
68,45:10
68,46:10
68,47:3
68,48:3
68,49:1
68,50:10
68,51:10
68,52:5
68,53:5
68,54:10
68,55:10
68,56:1
68,57:1
68,58:1
68,59:1
68,60:1
68,61:1
68,62:10
68,63:5
68,64:3
68,65:11
68,66:11
68,67:11
68,69:3
68,70:6
69,1:1
69,2:1
69,3:1
69,4:1
69,5:1
69,6:3
69,7:3
69,12:4
69,13:2
69,14:4
69,16:3
69,17:4
69,19:4
69,20:2
69,21:6
69,22:2
69,23:6
69,24:1
69,26:3
69,27:3
69,28:3
69,29:3
69,30:1
69,33:6
69,34:3
69,35:7
69,41:1
69,42:8
69,43:7
69,44:7
69,45:7
69,46:7
69,50:7
69,51:7
69,52:2
69,53:2
69,54:7
69,55:7
69,62:7
69,63:2
69,65:8
69,66:8
69,67:8
69,70:3
70,12:1
70,14:1
70,17:1
70,19:1
70,21:3
70,23:3
70,33:3
70,35:4
70,42:5
70,43:4
70,44:4
70,45:4
70,46:4
70,50:4
70,51:4
70,54:4
70,55:4
70,62:4
70,65:5
70,66:5
70,67:5

<end>

<optimal SALBP-1 value>
16


<rand seed>
467321153

<Lower Bounds>
Lm1=15
Lms1=15
Lm2=7
Lm3=8
Lm4=15
Best=15

<Optimal Stations (Iterations: 10)>
18
